instances/shortest_path/discrete/shortest_path_6_9.kp
43420
115

[2.1484373587770507 0.7857549990937649 3.129756679533333 0.22902593964276055 1.5788400585211932 0.00783917715162799 0.08411928927065718 1.4291029122883872 3.2572667290240247 3.9215111094812847 2.2132083399768976 4.693141264776172 3.7388070571379477 2.233779503590009 2.087425733572859 3.741423834217045 2.6014948956174444 2.1534772107588567 2.4245485600462886 0.6274067817343331 3.8269796702549512 2.571836203630785 0.8988133027372572 0.8396625218564935]

[33 49 43 32 13 11 22 93 74 91 89 64 41 97 46 70 74 49 42 59 14 41 69 56]
